12
1 6
2 3
3 1
4 2
5 8
6 5
7 4
8 10
9 6
10 8
11 7
30
0 1 47
1 0 47
0 2 80
2 0 80
0 3 57
3 0 57
0 4 100
4 0 100
0 5 75
5 0 75
0 6 62
6 0 62
0 7 86
7 0 86
0 8 3
8 0 3
0 9 77
9 0 77
0 10 35
10 0 35
0 11 33
11 0 33
2 4 68
2 7 64
2 11 72
3 6 66
4 8 51
5 6 7
5 9 72
6 7 24
